
  26    0


   0  15 2 3 4 5 6 7 8 9 10 11 12 13 23 24 25 
   6   5 18 17 16 15 14 
   1   4 22 18 15 14 
   4   3 20 19 16 
   6   3 18 15 14 
   1   2 15 14 
   5   2 21 20 
   5   2 17 15 
   1   2 17 14 
   7   1 19 
   9   1 16 
   7   1 16 
   5   1 14 
  10   1 26
   2   1 26
   2   1 26
   3   1 26
   8   1 26
   4   1 26
   4   1 26
   3   1 26
   1   1 26
  10   1 26
   7   1 26
   5   1 26
   0   0 
